
/*Objective Function*/

min: 2.6 x11 + 2.6 x12 + 2.6 x13 + 2.6 x14 + 
     2.9 x21 + 2.9 x22 + 2.9 x23 + 2.9 x24 +
     2.8 x31 + 2.8 x32 + 2.8 x33 + 2.8 x34 +
     3.0 x41 + 3.0 x42 + 3.0 x43 + 3.0 x44 +
     3.2 x51 + 3.2 x52 + 3.2 x53 + 3.2 x54 +
     4.0 x61 + 4.0 x62 + 4.0 x63 + 4.0 x64 +
     5.5 x71 + 5.5 x72 + 5.5 x73 + 5.5 x74 +
     2.9 x81 + 2.9 x82 + 2.9 x83 + 2.9 x84 +
     1.5 x91 + 1.5 x92 + 1.5 x93 + 1.5 x94 +
     3.9 x101 + 3.9 x102 + 3.9 x103 + 3.9 x104 +
     2.7 x111 + 2.7 x112 + 2.7 x113 + 2.7 x114 +
     2.1 x121 + 2.1 x122 + 2.1 x123 + 2.1 x124;


/*Constraints*/

/*Each group must have 3 members*/
x11 + x21 + x31 + x41 + x51 + x61 + x71 + x81 + x91 + x101 + x111 + x121 = 3;
x12 + x22 + x32 + x42 + x52 + x62 + x72 + x82 + x92 + x102 + x112 + x122 = 3;
x13 + x23 + x33 + x43 + x53 + x63 + x73 + x83 + x93 + x103 + x113 + x123 = 3;
x14 + x24 + x34 + x44 + x54 + x64 + x74 + x84 + x94 + x104 + x114 + x124 = 3;

/*Total contirbution constraints*/
2.6x11 + 2.9x21 + 2.8x31 + 3x41 + 3.2x51 + 4x61 + 5.5x71 + 2.9x81 + 1.5x91 + 3.9x101 + 2.7x111 + 2.1x121 <= 9.5;
2.6x12 + 2.9x22 + 2.8x32 + 3x42 + 3.2x52 + 4x62 + 5.5x72 + 2.9x82 + 1.5x92 + 3.9x102 + 2.7x112 + 2.1x122 <= 9.5;
2.6x13 + 2.9x23 + 2.8x33 + 3x43 + 3.2x53 + 4x63 + 5.5x73 + 2.9x83 + 1.5x93 + 3.9x103 + 2.7x113 + 2.1x123 <= 9.5;
2.6x14 + 2.9x24 + 2.8x34 + 3x44 + 3.2x54 + 4x64 + 5.5x74 + 2.9x84 + 1.5x94 + 3.9x104 + 2.7x114 + 2.1x124 <= 9.5;

/*Each student can only be assigned to one group*/
x11 + x12 + x13 + x14 = 1; 
x21 + x22 + x23 + x24 = 1;
x31 + x32 + x33 + x34 = 1;
x41 + x42 + x43 + x44 = 1;
x51 + x52 + x53 + x54 = 1;
x61 + x62 + x63 + x64 = 1;
x71 + x72 + x73 + x74 = 1;
x81 + x82 + x83 + x84 = 1;
x91 + x92 + x93 + x94 = 1;
x101 + x102 + x103 + x104 = 1;
x111 + x112 + x113 + x114 = 1;
x121 + x122 + x123 + x124 = 1;

/*Student is either assigned to a particular group or not*/
bin x11, x12, x13, x14, x21, x22, x23, x24, x31, x32, x33, x34,
x41, x42, x43, x44, x51, x52, x53, x54, x61, x62, x63, x64,
x71, x72, x73, x74, x81, x82, x83, x84, x91, x92, x93, x94,
x101, x102, x103, x104, x111, x112, x113, x114, x121, x122, x123, x124;